NAME : E-n30-k3.393512.tour
COMMENT : Length = 393512
COMMENT : Found by LKH [Keld Helsgaun] Sun Dec 17 21:55:27 2017
TYPE : TOUR
DIMENSION : 32
TOUR_SECTION
1
20
21
23
4
5
6
3
31
22
15
9
10
18
13
12
17
14
8
32
19
24
11
16
27
29
28
30
26
25
2
7
-1
EOF
